NAME : CMT9
TYPE : CVRP
COMMENT : 1162.55
DIMENSION : 151
VEHICLES : 14
CAPACITY : 200
DISTANCE : 180
SERVICE_TIME : 10
EDGE_WEIGHT_TYPE : EXACT_2D
NODE_COORD_SECTION
1 37.00000 52.00000
2 49.00000 49.00000
3 52.00000 64.00000
4 20.00000 26.00000
5 40.00000 30.00000
6 21.00000 47.00000
7 17.00000 63.00000
8 31.00000 62.00000
9 52.00000 33.00000
10 51.00000 21.00000
11 42.00000 41.00000
12 31.00000 32.00000
13 5.00000 25.00000
14 12.00000 42.00000
15 36.00000 16.00000
16 52.00000 41.00000
17 27.00000 23.00000
18 17.00000 33.00000
19 13.00000 13.00000
20 57.00000 58.00000
21 62.00000 42.00000
22 42.00000 57.00000
23 16.00000 57.00000
24 8.00000 52.00000
25 7.00000 38.00000
26 27.00000 68.00000
27 30.00000 48.00000
28 43.00000 67.00000
29 58.00000 48.00000
30 58.00000 27.00000
31 37.00000 69.00000
32 38.00000 46.00000
33 46.00000 10.00000
34 61.00000 33.00000
35 62.00000 63.00000
36 63.00000 69.00000
37 32.00000 22.00000
38 45.00000 35.00000
39 59.00000 15.00000
40 5.00000 6.00000
41 10.00000 17.00000
42 21.00000 10.00000
43 5.00000 64.00000
44 30.00000 15.00000
45 39.00000 10.00000
46 32.00000 39.00000
47 25.00000 32.00000
48 25.00000 55.00000
49 48.00000 28.00000
50 56.00000 37.00000
51 41.00000 49.00000
52 35.00000 17.00000
53 55.00000 45.00000
54 55.00000 20.00000
55 15.00000 30.00000
56 25.00000 30.00000
57 20.00000 50.00000
58 10.00000 43.00000
59 55.00000 60.00000
60 30.00000 60.00000
61 20.00000 65.00000
62 50.00000 35.00000
63 30.00000 25.00000
64 15.00000 10.00000
65 30.00000 5.00000
66 10.00000 20.00000
67 5.00000 30.00000
68 20.00000 40.00000
69 15.00000 60.00000
70 45.00000 65.00000
71 45.00000 20.00000
72 45.00000 10.00000
73 55.00000 5.00000
74 65.00000 35.00000
75 65.00000 20.00000
76 45.00000 30.00000
77 35.00000 40.00000
78 41.00000 37.00000
79 64.00000 42.00000
80 40.00000 60.00000
81 31.00000 52.00000
82 35.00000 69.00000
83 53.00000 52.00000
84 65.00000 55.00000
85 63.00000 65.00000
86 2.00000 60.00000
87 20.00000 20.00000
88 5.00000 5.00000
89 60.00000 12.00000
90 40.00000 25.00000
91 42.00000 7.00000
92 24.00000 12.00000
93 23.00000 3.00000
94 11.00000 14.00000
95 6.00000 38.00000
96 2.00000 48.00000
97 8.00000 56.00000
98 13.00000 52.00000
99 6.00000 68.00000
100 47.00000 47.00000
101 49.00000 58.00000
102 27.00000 43.00000
103 37.00000 31.00000
104 57.00000 29.00000
105 63.00000 23.00000
106 53.00000 12.00000
107 32.00000 12.00000
108 36.00000 26.00000
109 21.00000 24.00000
110 17.00000 34.00000
111 12.00000 24.00000
112 24.00000 58.00000
113 27.00000 69.00000
114 15.00000 77.00000
115 62.00000 77.00000
116 49.00000 73.00000
117 67.00000 5.00000
118 56.00000 39.00000
119 37.00000 47.00000
120 37.00000 56.00000
121 57.00000 68.00000
122 47.00000 16.00000
123 44.00000 17.00000
124 46.00000 13.00000
125 49.00000 11.00000
126 49.00000 42.00000
127 53.00000 43.00000
128 61.00000 52.00000
129 57.00000 48.00000
130 56.00000 37.00000
131 55.00000 54.00000
132 15.00000 47.00000
133 14.00000 37.00000
134 11.00000 31.00000
135 16.00000 22.00000
136 4.00000 18.00000
137 28.00000 18.00000
138 26.00000 52.00000
139 26.00000 35.00000
140 31.00000 67.00000
141 15.00000 19.00000
142 22.00000 22.00000
143 18.00000 24.00000
144 26.00000 27.00000
145 25.00000 24.00000
146 22.00000 27.00000
147 25.00000 21.00000
148 19.00000 21.00000
149 20.00000 26.00000
150 18.00000 18.00000
151 35.00000 35.00000
DEMAND_SECTION
1 7
2 30
3 16
4 9
5 21
6 15
7 19
8 23
9 11
10 5
11 19
12 29
13 23
14 21
15 10
16 15
17 3
18 41
19 9
20 28
21 8
22 8
23 16
24 10
25 28
26 7
27 15
28 14
29 6
30 19
31 11
32 12
33 23
34 26
35 17
36 6
37 9
38 15
39 14
40 7
41 27
42 13
43 11
44 16
45 10
46 5
47 25
48 17
49 18
50 10
51 10
52 7
53 13
54 19
55 26
56 3
57 5
58 9
59 16
60 16
61 12
62 19
63 23
64 20
65 8
66 19
67 2
68 12
69 17
70 9
71 11
72 18
73 29
74 3
75 6
76 17
77 16
78 16
79 9
80 21
81 27
82 23
83 11
84 14
85 8
86 5
87 8
88 16
89 31
90 9
91 5
92 5
93 7
94 18
95 16
96 1
97 27
98 36
99 30
100 13
101 10
102 9
103 14
104 18
105 2
106 6
107 7
108 18
109 28
110 3
111 13
112 19
113 10
114 9
115 20
116 25
117 25
118 36
119 6
120 5
121 15
122 25
123 9
124 8
125 18
126 13
127 14
128 3
129 23
130 6
131 26
132 16
133 11
134 7
135 41
136 35
137 26
138 9
139 15
140 3
141 1
142 2
143 22
144 27
145 20
146 11
147 12
148 10
149 9
150 17
151 0
DEPOT_SECTION
151
-1
EOF
